\ This file has been generated by DOcplex
\ ENCODING=ISO-8859-1
\Problem name: dectiger problem

Maximize
 obj: [ 115.075000000000 a0_u0*a1_u0_x0 + 80 a0_u0*a1_u1_x0 + 116 a0_u0*a1_u2_x0
      + 146.900000000000 a0_u0*a1_u0_x1 + 170 a0_u0*a1_u1_x1
      + 116 a0_u0*a1_u2_x1 + 20 a0_u1*a1_u0_x0 + 70 a0_u1*a1_u1_x0
      + 20 a0_u1*a1_u2_x0 + 180 a0_u1*a1_u0_x1 + 190 a0_u1*a1_u1_x1
      + 180 a0_u1*a1_u2_x1 + 145 a0_u2*a1_u0_x0 + 105 a0_u2*a1_u1_x0
      + 150 a0_u2*a1_u2_x0 + 100 a0_u2*a1_u0_x1 + 150 a0_u2*a1_u1_x1
      + 100 a0_u2*a1_u2_x1 ]/2
Subject To
 c1: - 2 aj_u0_x0 - 20 aj_u1_x0 + 60 aj_u2_x0 - 4 aj_u3_x0 - 20 aj_u4_x0
     + 60 aj_u5_x0 + 50 aj_u6_x0 + 30 aj_u7_x0 + 70 aj_u8_x0 + 2 a0_u0 + 4 a0_u1
     - 50 a0_u2 >= 0
 c2: - 2 aj_u0_x0 - 20 aj_u1_x0 + 60 aj_u2_x0 - 4 aj_u3_x0 - 20 aj_u4_x0
     + 60 aj_u5_x0 + 50 aj_u6_x0 + 30 aj_u7_x0 + 70 aj_u8_x0 + 20 a0_u0
     + 20 a0_u1 - 30 a0_u2 >= 0
 c3: - 2 aj_u0_x0 - 20 aj_u1_x0 + 60 aj_u2_x0 - 4 aj_u3_x0 - 20 aj_u4_x0
     + 60 aj_u5_x0 + 50 aj_u6_x0 + 30 aj_u7_x0 + 70 aj_u8_x0 - 60 a0_u0
     - 60 a0_u1 - 70 a0_u2 >= 0
 c4: - 2 aj_u0_x1 + 25 aj_u1_x1 - 100 aj_u2_x1 - 4 aj_u3_x1 + 30 aj_u4_x1
     - 100 aj_u5_x1 - 40 aj_u6_x1 - 15 aj_u7_x1 - 50 aj_u8_x1 + 2 a0_u0
     + 4 a0_u1 + 40 a0_u2 >= 0
 c5: - 2 aj_u0_x1 + 25 aj_u1_x1 - 100 aj_u2_x1 - 4 aj_u3_x1 + 30 aj_u4_x1
     - 100 aj_u5_x1 - 40 aj_u6_x1 - 15 aj_u7_x1 - 50 aj_u8_x1 - 25 a0_u0
     - 30 a0_u1 + 15 a0_u2 >= 0
 c6: - 2 aj_u0_x1 + 25 aj_u1_x1 - 100 aj_u2_x1 - 4 aj_u3_x1 + 30 aj_u4_x1
     - 100 aj_u5_x1 - 40 aj_u6_x1 - 15 aj_u7_x1 - 50 aj_u8_x1 + 100 a0_u0
     + 100 a0_u1 + 50 a0_u2 >= 0
 c7: a0_u0 + a0_u1 + a0_u2 = 1
 c8: a1_u0_x0 + a1_u1_x0 + a1_u2_x0 = 1
 c9: aj_u0_x0 + aj_u1_x0 + aj_u2_x0 + aj_u3_x0 + aj_u4_x0 + aj_u5_x0 + aj_u6_x0
     + aj_u7_x0 + aj_u8_x0 = 1
 c10: a1_u0_x1 + a1_u1_x1 + a1_u2_x1 = 1
 c11: aj_u0_x1 + aj_u1_x1 + aj_u2_x1 + aj_u3_x1 + aj_u4_x1 + aj_u5_x1 + aj_u6_x1
      + aj_u7_x1 + aj_u8_x1 = 1
 c12: aj_u0_x0 + aj_u1_x0 + aj_u2_x0 - a0_u0 = 0
 c13: aj_u3_x0 + aj_u4_x0 + aj_u5_x0 - a0_u1 = 0
 c14: aj_u6_x0 + aj_u7_x0 + aj_u8_x0 - a0_u2 = 0
 c15: aj_u0_x1 + aj_u1_x1 + aj_u2_x1 - a0_u0 = 0
 c16: aj_u3_x1 + aj_u4_x1 + aj_u5_x1 - a0_u1 = 0
 c17: aj_u6_x1 + aj_u7_x1 + aj_u8_x1 - a0_u2 = 0
 c18: aj_u0_x0 + aj_u3_x0 + aj_u6_x0 - a1_u0_x0 = 0
 c19: aj_u1_x0 + aj_u4_x0 + aj_u7_x0 - a1_u1_x0 = 0
 c20: aj_u2_x0 + aj_u5_x0 + aj_u8_x0 - a1_u2_x0 = 0
 c21: aj_u0_x1 + aj_u3_x1 + aj_u6_x1 - a1_u0_x1 = 0
 c22: aj_u1_x1 + aj_u4_x1 + aj_u7_x1 - a1_u1_x1 = 0
 c23: aj_u2_x1 + aj_u5_x1 + aj_u8_x1 - a1_u2_x1 = 0

Bounds
       a0_u0 <= 1
       a0_u1 <= 1
       a0_u2 <= 1
 0 <= a1_u0_x0 <= 1
 0 <= a1_u1_x0 <= 1
 0 <= a1_u2_x0 <= 1
       aj_u0_x0 <= 1
       aj_u1_x0 <= 1
       aj_u2_x0 <= 1
       aj_u3_x0 <= 1
       aj_u4_x0 <= 1
       aj_u5_x0 <= 1
       aj_u6_x0 <= 1
       aj_u7_x0 <= 1
       aj_u8_x0 <= 1
 0 <= a1_u0_x1 <= 1
 0 <= a1_u1_x1 <= 1
 0 <= a1_u2_x1 <= 1
       aj_u0_x1 <= 1
       aj_u1_x1 <= 1
       aj_u2_x1 <= 1
       aj_u3_x1 <= 1
       aj_u4_x1 <= 1
       aj_u5_x1 <= 1
       aj_u6_x1 <= 1
       aj_u7_x1 <= 1
       aj_u8_x1 <= 1

Binaries
 a1_u0_x0 a1_u1_x0 a1_u2_x0 a1_u0_x1 a1_u1_x1 a1_u2_x1
End
